p wcnf 40 111 41
1 -1 0
1 -2 0
1 -3 0
1 -4 0
1 -5 0
1 -6 0
1 -7 0
1 -8 0
1 -9 0
1 -10 0
1 -11 0
1 -12 0
1 -13 0
1 -14 0
1 -15 0
1 -16 0
1 -17 0
1 -18 0
1 -19 0
1 -20 0
1 -21 0
1 -22 0
1 -23 0
1 -24 0
1 -25 0
1 -26 0
1 -27 0
1 -28 0
1 -29 0
1 -30 0
1 -31 0
1 -32 0
1 -33 0
1 -34 0
1 -35 0
1 -36 0
1 -37 0
1 -38 0
1 -39 0
1 -40 0
41 2 1 0
41 3 1 0
41 3 2 0
41 5 3 0
41 5 4 0
41 7 3 0
41 8 4 0
41 9 3 0
41 9 7 0
41 9 8 0
41 10 2 0
41 11 2 0
41 11 7 0
41 12 4 0
41 13 9 0
41 15 2 0
41 15 12 0
41 16 3 0
41 16 7 0
41 16 10 0
41 16 12 0
41 18 8 0
41 18 12 0
41 19 18 0
41 20 4 0
41 20 6 0
41 20 10 0
41 20 18 0
41 23 19 0
41 24 13 0
41 24 20 0
41 24 21 0
41 25 6 0
41 25 21 0
41 26 7 0
41 26 13 0
41 26 25 0
41 27 23 0
41 28 1 0
41 28 4 0
41 28 14 0
41 28 22 0
41 28 24 0
41 29 2 0
41 29 22 0
41 30 8 0
41 30 12 0
41 30 23 0
41 30 25 0
41 31 3 0
41 31 5 0
41 31 12 0
41 32 1 0
41 32 13 0
41 32 16 0
41 32 21 0
41 33 7 0
41 34 5 0
41 34 11 0
41 34 32 0
41 35 13 0
41 35 15 0
41 35 16 0
41 35 23 0
41 35 25 0
41 37 6 0
41 37 25 0
41 37 26 0
41 37 32 0
41 38 32 0
41 40 31 0
